&control
  calculation = 'scf' ,
  outdir = './tmp' ,
  pseudo_dir = './' ,
  tprnfor = .True.,
  tstress = .True.,
/
&system
  ibrav = 2,
  celldm(1) = 10.26,
  nat = 2,
  ntyp = 1,
  ecutwfc = 30 ,
/
&ELECTRONS
/
&IONS
/
&CELL
/
ATOMIC_SPECIES
  Si   28.055  Si.pbe-n-kjpaw_psl.0.1.UPF
ATOMIC_POSITIONS crystal 
  Si      0.00    0.00    0.00
  Si      0.25    0.25    0.25
K_POINTS automatic 
  10 10 10   0 0 0
