 &CONTROL
  calculation = 'scf' ,
  outdir = './tmp',
  prefix = 'Fe_hcp',
  pseudo_dir = './' ,
  tprnfor = .True.,
  tstress = .True.,
 /
 &SYSTEM
  ibrav = 4,
  celldm(1) = 5.45,
  celldm(3) = 1.74,
  nat = 2,
  ntyp = 1,
  ecutwfc = 50,
  ecutrho = 250,
  nspin = 2,
  starting_magnetization(1) = 0.7,
  occupations = 'smearing',
  smearing = 'cold',
  degauss = 0.025,
 /
 &ELECTRONS
  diagonalization = 'david',
  conv_thr = 1.D-8,
  mixing_beta = 0.7,
 /
ATOMIC_SPECIES
   Fe   55.85  Fe.pbe-spn-kjpaw_psl.0.2.1.UPF
ATOMIC_POSITIONS crystal 
   Fe      0.333333333333    0.666666666667    0.25
   Fe      0.666666666667    0.333333333333    0.75    
K_POINTS automatic 
  7 7 4  0 0 0 

